NAME: shapley.tsp
TYPE: TSP
COMMENT: Shapley Experiment
DIMENSION: 30
EDGE_WEIGHT_TYPE: EUC_2D
DISPLAY_DATA_TYPE: COORD_DISPLAY
NODE_COORD_SECTION
1 652.759 56.4813
2 780.623 203.933
3 270.374 314.454
4 259.686 159.479
5 724.293 380.131
6 369.714 467.177
7 764.298 646.732
8 166.435 244.229
9 116.887 365.081
10 92.7862 44.0673
11 432.626 84.0621
12 766.158 662.054
13 948.756 460.673
14 887.962 535.649
15 830.827 658.378
16 220.411 45.7585
17 881.806 260.393
18 872.917 714.342
19 75.1017 18.1091
20 762.963 126.715
21 293.402 788.113
22 560.89 66.1757
23 430.664 653.976
24 894.9 154.766
25 160.407 716.477
26 234.986 459.086
27 788.37 119.178
28 49.0237 396.731
29 618.255 71.8811
30 340.332 610.184
EOF
